c SAT problem
p wcnf 39 46
1 -3120 -165 0
1 3120 75 0
1 3120 -150 0
1 3135 165 0
1 3135 -3120 0
1 -3135 -181 0
1 3135 -90 0
1 -3165 196 0
1 -3165 181 0
1 -3165 -3166 0
1 -120 -3060 0
1 135 -3075 0
1 135 3120 0
1 165 3045 0
1 165 -3030 0
1 3060 90 0
1 -3105 -255 0
1 195 3000 0
1 -225 -3075 0
1 225 -3000 0
1 -3000 -180 0
1 3015 195 0
1 3030 3045 0
1 3030 240 0
1 151 -3210 0
1 151 3195 0
1 3285 -151 0
1 -181 -3090 0
1 181 3255 0
1 -181 -3225 0
1 211 3090 0
1 211 -3255 0
1 3195 226 0
1 3195 -166 0
1 -3195 270 0
1 3195 -285 0
1 3225 3210 0
1 -3225 211 0
1 240 -3180 0
1 255 -3045 0
1 255 3090 0
1 -270 -3045 0
1 3121 226 0
1 -3121 -240 0
1 3151 -285 0
1 -3166 -270 0
